\Problem name: compact

Minimize
OBJROW: C
Subject To
ord(0,1):  - x(0,1) + x(0,2) >= 7
ord(0,2):  x(0,0) - x(0,2) >= 7
ord(1,1):  x(1,0) - x(1,1) >= 4
ord(1,2):  - x(1,0) + x(1,2) >= 3
ord(2,1):  - x(2,1) + x(2,2) >= 7
ord(2,2):  x(2,0) - x(2,2) >= 6
triangle2(0,1,0):  y(0,1,0) + y(1,0,0) = 1
triangle2(0,1,1):  y(0,1,1) + y(1,0,1) = 1
triangle2(0,1,2):  y(0,1,2) + y(1,0,2) = 1
triangle2(0,2,0):  y(0,2,0) + y(2,0,0) = 1
triangle2(0,2,1):  y(0,2,1) + y(2,0,1) = 1
triangle2(0,2,2):  y(0,2,2) + y(2,0,2) = 1
triangle2(1,2,0):  y(1,2,0) + y(2,1,0) = 1
triangle2(1,2,1):  y(1,2,1) + y(2,1,1) = 1
triangle2(1,2,2):  y(1,2,2) + y(2,1,2) = 1
MCLinV(0,1,0):  - x(0,0) + v(0,1,0)p - v(0,1,0)n + x(1,0) = -3
MCLinV(1,0,0):  x(0,0) + v(1,0,0)p - v(1,0,0)n - x(1,0) = -1
MCLin1(0,1,0):  u(0,1,0)p - u(0,1,0)n >= 0
MCLin2(0,1,0):  23 y(1,0,0) + u(0,1,0)p - u(0,1,0)n >= 0
MCLin3(0,1,0):  -36 y(1,0,0) - v(0,1,0)p + v(0,1,0)n + u(0,1,0)p - u(0,1,0)n >= -36
MCLin4(0,1,0):  -36 y(1,0,0) + u(0,1,0)p - u(0,1,0)n <= 0
MCLin5(0,1,0):  23 y(1,0,0) - v(0,1,0)p + v(0,1,0)n + u(0,1,0)p - u(0,1,0)n <= 23
MCLin6(1,0,0):  u(1,0,0)p - u(1,0,0)n >= 0
MCLin7(1,0,0):  40 y(0,1,0) + u(1,0,0)p - u(1,0,0)n >= 0
MCLin8(1,0,0):  -19 y(0,1,0) - v(1,0,0)p + v(1,0,0)n + u(1,0,0)p - u(1,0,0)n >= -19
MCLin9(1,0,0):  -19 y(0,1,0) + u(1,0,0)p - u(1,0,0)n <= 0
MCLin10(1,0,0):  40 y(0,1,0) - v(1,0,0)p + v(1,0,0)n + u(1,0,0)p - u(1,0,0)n <= 40
MCLinV(0,1,1):  - x(0,1) + v(0,1,1)p - v(0,1,1)n + x(1,1) = -4
MCLinV(1,0,1):  x(0,1) + v(1,0,1)p - v(1,0,1)n - x(1,1) = -7
MCLin1(0,1,1):  u(0,1,1)p - u(0,1,1)n >= 0
MCLin2(0,1,1):  34 y(1,0,1) + u(0,1,1)p - u(0,1,1)n >= 0
MCLin3(0,1,1):  -25 y(1,0,1) - v(0,1,1)p + v(0,1,1)n + u(0,1,1)p - u(0,1,1)n >= -25
MCLin4(0,1,1):  -25 y(1,0,1) + u(0,1,1)p - u(0,1,1)n <= 0
MCLin5(0,1,1):  34 y(1,0,1) - v(0,1,1)p + v(0,1,1)n + u(0,1,1)p - u(0,1,1)n <= 34
MCLin6(1,0,1):  u(1,0,1)p - u(1,0,1)n >= 0
MCLin7(1,0,1):  36 y(0,1,1) + u(1,0,1)p - u(1,0,1)n >= 0
MCLin8(1,0,1):  -23 y(0,1,1) - v(1,0,1)p + v(1,0,1)n + u(1,0,1)p - u(1,0,1)n >= -23
MCLin9(1,0,1):  -23 y(0,1,1) + u(1,0,1)p - u(1,0,1)n <= 0
MCLin10(1,0,1):  36 y(0,1,1) - v(1,0,1)p + v(1,0,1)n + u(1,0,1)p - u(1,0,1)n <= 36
MCLinV(0,1,2):  - x(0,2) + v(0,1,2)p - v(0,1,2)n + x(1,2) = -7
MCLinV(1,0,2):  x(0,2) + v(1,0,2)p - v(1,0,2)n - x(1,2) = -7
MCLin1(0,1,2):  u(0,1,2)p - u(0,1,2)n >= 0
MCLin2(0,1,2):  37 y(1,0,2) + u(0,1,2)p - u(0,1,2)n >= 0
MCLin3(0,1,2):  -22 y(1,0,2) - v(0,1,2)p + v(0,1,2)n + u(0,1,2)p - u(0,1,2)n >= -22
MCLin4(0,1,2):  -22 y(1,0,2) + u(0,1,2)p - u(0,1,2)n <= 0
MCLin5(0,1,2):  37 y(1,0,2) - v(0,1,2)p + v(0,1,2)n + u(0,1,2)p - u(0,1,2)n <= 37
MCLin6(1,0,2):  u(1,0,2)p - u(1,0,2)n >= 0
MCLin7(1,0,2):  36 y(0,1,2) + u(1,0,2)p - u(1,0,2)n >= 0
MCLin8(1,0,2):  -23 y(0,1,2) - v(1,0,2)p + v(1,0,2)n + u(1,0,2)p - u(1,0,2)n >= -23
MCLin9(1,0,2):  -23 y(0,1,2) + u(1,0,2)p - u(1,0,2)n <= 0
MCLin10(1,0,2):  36 y(0,1,2) - v(1,0,2)p + v(1,0,2)n + u(1,0,2)p - u(1,0,2)n <= 36
MCLinV(0,2,0):  - x(0,0) + v(0,2,0)p - v(0,2,0)n + x(2,0) = -2
MCLinV(2,0,0):  x(0,0) + v(2,0,0)p - v(2,0,0)n - x(2,0) = -1
MCLin1(0,2,0):  u(0,2,0)p - u(0,2,0)n >= 0
MCLin2(0,2,0):  30 y(2,0,0) + u(0,2,0)p - u(0,2,0)n >= 0
MCLin3(0,2,0):  -28 y(2,0,0) - v(0,2,0)p + v(0,2,0)n + u(0,2,0)p - u(0,2,0)n >= -28
MCLin4(0,2,0):  -28 y(2,0,0) + u(0,2,0)p - u(0,2,0)n <= 0
MCLin5(0,2,0):  30 y(2,0,0) - v(0,2,0)p + v(0,2,0)n + u(0,2,0)p - u(0,2,0)n <= 30
MCLin6(2,0,0):  u(2,0,0)p - u(2,0,0)n >= 0
MCLin7(2,0,0):  31 y(0,2,0) + u(2,0,0)p - u(2,0,0)n >= 0
MCLin8(2,0,0):  -27 y(0,2,0) - v(2,0,0)p + v(2,0,0)n + u(2,0,0)p - u(2,0,0)n >= -27
MCLin9(2,0,0):  -27 y(0,2,0) + u(2,0,0)p - u(2,0,0)n <= 0
MCLin10(2,0,0):  31 y(0,2,0) - v(2,0,0)p + v(2,0,0)n + u(2,0,0)p - u(2,0,0)n <= 31
MCLinV(0,2,1):  - x(0,1) + v(0,2,1)p - v(0,2,1)n + x(2,1) = -7
MCLinV(2,0,1):  x(0,1) + v(2,0,1)p - v(2,0,1)n - x(2,1) = -7
MCLin1(0,2,1):  u(0,2,1)p - u(0,2,1)n >= 0
MCLin2(0,2,1):  36 y(2,0,1) + u(0,2,1)p - u(0,2,1)n >= 0
MCLin3(0,2,1):  -22 y(2,0,1) - v(0,2,1)p + v(0,2,1)n + u(0,2,1)p - u(0,2,1)n >= -22
MCLin4(0,2,1):  -22 y(2,0,1) + u(0,2,1)p - u(0,2,1)n <= 0
MCLin5(0,2,1):  36 y(2,0,1) - v(0,2,1)p + v(0,2,1)n + u(0,2,1)p - u(0,2,1)n <= 36
MCLin6(2,0,1):  u(2,0,1)p - u(2,0,1)n >= 0
MCLin7(2,0,1):  36 y(0,2,1) + u(2,0,1)p - u(2,0,1)n >= 0
MCLin8(2,0,1):  -22 y(0,2,1) - v(2,0,1)p + v(2,0,1)n + u(2,0,1)p - u(2,0,1)n >= -22
MCLin9(2,0,1):  -22 y(0,2,1) + u(2,0,1)p - u(2,0,1)n <= 0
MCLin10(2,0,1):  36 y(0,2,1) - v(2,0,1)p + v(2,0,1)n + u(2,0,1)p - u(2,0,1)n <= 36
MCLinV(0,2,2):  - x(0,2) + v(0,2,2)p - v(0,2,2)n + x(2,2) = -6
MCLinV(2,0,2):  x(0,2) + v(2,0,2)p - v(2,0,2)n - x(2,2) = -7
MCLin1(0,2,2):  u(0,2,2)p - u(0,2,2)n >= 0
MCLin2(0,2,2):  35 y(2,0,2) + u(0,2,2)p - u(0,2,2)n >= 0
MCLin3(0,2,2):  -23 y(2,0,2) - v(0,2,2)p + v(0,2,2)n + u(0,2,2)p - u(0,2,2)n >= -23
MCLin4(0,2,2):  -23 y(2,0,2) + u(0,2,2)p - u(0,2,2)n <= 0
MCLin5(0,2,2):  35 y(2,0,2) - v(0,2,2)p + v(0,2,2)n + u(0,2,2)p - u(0,2,2)n <= 35
MCLin6(2,0,2):  u(2,0,2)p - u(2,0,2)n >= 0
MCLin7(2,0,2):  36 y(0,2,2) + u(2,0,2)p - u(2,0,2)n >= 0
MCLin8(2,0,2):  -22 y(0,2,2) - v(2,0,2)p + v(2,0,2)n + u(2,0,2)p - u(2,0,2)n >= -22
MCLin9(2,0,2):  -22 y(0,2,2) + u(2,0,2)p - u(2,0,2)n <= 0
MCLin10(2,0,2):  36 y(0,2,2) - v(2,0,2)p + v(2,0,2)n + u(2,0,2)p - u(2,0,2)n <= 36
MCLinV(1,2,0):  - x(1,0) + v(1,2,0)p - v(1,2,0)n + x(2,0) = -2
MCLinV(2,1,0):  x(1,0) + v(2,1,0)p - v(2,1,0)n - x(2,0) = -3
MCLin1(1,2,0):  u(1,2,0)p - u(1,2,0)n >= 0
MCLin2(1,2,0):  40 y(2,1,0) + u(1,2,0)p - u(1,2,0)n >= 0
MCLin3(1,2,0):  -19 y(2,1,0) - v(1,2,0)p + v(1,2,0)n + u(1,2,0)p - u(1,2,0)n >= -19
MCLin4(1,2,0):  -19 y(2,1,0) + u(1,2,0)p - u(1,2,0)n <= 0
MCLin5(1,2,0):  40 y(2,1,0) - v(1,2,0)p + v(1,2,0)n + u(1,2,0)p - u(1,2,0)n <= 40
MCLin6(2,1,0):  u(2,1,0)p - u(2,1,0)n >= 0
MCLin7(2,1,0):  24 y(1,2,0) + u(2,1,0)p - u(2,1,0)n >= 0
MCLin8(2,1,0):  -35 y(1,2,0) - v(2,1,0)p + v(2,1,0)n + u(2,1,0)p - u(2,1,0)n >= -35
MCLin9(2,1,0):  -35 y(1,2,0) + u(2,1,0)p - u(2,1,0)n <= 0
MCLin10(2,1,0):  24 y(1,2,0) - v(2,1,0)p + v(2,1,0)n + u(2,1,0)p - u(2,1,0)n <= 24
MCLinV(1,2,1):  - x(1,1) + v(1,2,1)p - v(1,2,1)n + x(2,1) = -7
MCLinV(2,1,1):  x(1,1) + v(2,1,1)p - v(2,1,1)n - x(2,1) = -4
MCLin1(1,2,1):  u(1,2,1)p - u(1,2,1)n >= 0
MCLin2(1,2,1):  36 y(2,1,1) + u(1,2,1)p - u(1,2,1)n >= 0
MCLin3(1,2,1):  -23 y(2,1,1) - v(1,2,1)p + v(1,2,1)n + u(1,2,1)p - u(1,2,1)n >= -23
MCLin4(1,2,1):  -23 y(2,1,1) + u(1,2,1)p - u(1,2,1)n <= 0
MCLin5(1,2,1):  36 y(2,1,1) - v(1,2,1)p + v(1,2,1)n + u(1,2,1)p - u(1,2,1)n <= 36
MCLin6(2,1,1):  u(2,1,1)p - u(2,1,1)n >= 0
MCLin7(2,1,1):  34 y(1,2,1) + u(2,1,1)p - u(2,1,1)n >= 0
MCLin8(2,1,1):  -25 y(1,2,1) - v(2,1,1)p + v(2,1,1)n + u(2,1,1)p - u(2,1,1)n >= -25
MCLin9(2,1,1):  -25 y(1,2,1) + u(2,1,1)p - u(2,1,1)n <= 0
MCLin10(2,1,1):  34 y(1,2,1) - v(2,1,1)p + v(2,1,1)n + u(2,1,1)p - u(2,1,1)n <= 34
MCLinV(1,2,2):  - x(1,2) + v(1,2,2)p - v(1,2,2)n + x(2,2) = -6
MCLinV(2,1,2):  x(1,2) + v(2,1,2)p - v(2,1,2)n - x(2,2) = -7
MCLin1(1,2,2):  u(1,2,2)p - u(1,2,2)n >= 0
MCLin2(1,2,2):  35 y(2,1,2) + u(1,2,2)p - u(1,2,2)n >= 0
MCLin3(1,2,2):  -24 y(2,1,2) - v(1,2,2)p + v(1,2,2)n + u(1,2,2)p - u(1,2,2)n >= -24
MCLin4(1,2,2):  -24 y(2,1,2) + u(1,2,2)p - u(1,2,2)n <= 0
MCLin5(1,2,2):  35 y(2,1,2) - v(1,2,2)p + v(1,2,2)n + u(1,2,2)p - u(1,2,2)n <= 35
MCLin6(2,1,2):  u(2,1,2)p - u(2,1,2)n >= 0
MCLin7(2,1,2):  37 y(1,2,2) + u(2,1,2)p - u(2,1,2)n >= 0
MCLin8(2,1,2):  -22 y(1,2,2) - v(2,1,2)p + v(2,1,2)n + u(2,1,2)p - u(2,1,2)n >= -22
MCLin9(2,1,2):  -22 y(1,2,2) + u(2,1,2)p - u(2,1,2)n <= 0
MCLin10(2,1,2):  37 y(1,2,2) - v(2,1,2)p + v(2,1,2)n + u(2,1,2)p - u(2,1,2)n <= 37
makespan(0):  C - x(0,0) >= 1
makespan(1):  C - x(1,2) >= 7
makespan(2):  C - x(2,0) >= 2
cut_clique_1(02,0):  0.03906 x(0,0) + 0.03378 x(2,0) >= 1
cut_clique_1(012,1):  0.86382 x(0,1) + 0.83440 x(1,1) + 0.81370 x(2,1) >= 1
cut_clique_1(02,1):  0.86382 x(0,1) + 0.87879 x(2,1) >= 1
cut_clique_1(12,1):  0.98363 x(1,1) + 0.62798 x(2,1) >= 1
cut_clique_1(01,1):  x(0,1) + 0.97747 x(1,1) >= 1
cut_clique_1(02,2):  0.06821 x(0,2) + 0.07449 x(2,2) >= 1
cut_clique_1(01,2):  0.01044 x(0,2) + 0.13206 x(1,2) >= 1
cut_clique_1(012,2):  0.03901 x(0,2) + 0.00186 x(1,2) + 0.07648 x(2,2) >= 1
cut_clique_2(02,1):  0.84463 x(0,1) + 0.88880 x(2,1) >= 1
cut_clique_2(012,1):  0.63738 x(0,1) + 0.24849 x(1,1) + 0.60047 x(2,1) >= 1
cut_clique_2(12,1):  0.88944 x(1,1) + x(2,1) >= 1
cut_clique_2(01,1):  0.32851 x(0,1) + 0.59363 x(1,1) >= 1
cut_clique_2(01,2):  0.06424 x(0,2) + 0.04396 x(1,2) >= 1
cut_clique_2(012,2):  0.04183 x(0,2) + 0.06713 x(1,2) + 0.00046 x(2,2) >= 1
cut_clique_3(12,1):  0.81025 x(1,1) + x(2,1) >= 1
cut_clique_3(012,1):  0.38967 x(0,1) + 0.44450 x(1,1) + 0.93866 x(2,1) >= 1
cut_clique_3(01,1):  0.66600 x(0,1) + 0.23419 x(1,1) >= 1
cut_clique_3(02,1):  0.84539 x(0,1) + 0.78857 x(2,1) >= 1
cut_clique_3(12,2):  0.05175 x(1,2) + 0.05491 x(2,2) >= 1
cut_clique_3(02,2):  0.05208 x(0,2) + 0.06094 x(2,2) >= 1
cut_clique_4(012,1):  0.23348 x(0,1) + 0.23526 x(1,1) + 0.61244 x(2,1) >= 1
cut_clique_4(12,1):  0.82468 x(1,1) + 0.96457 x(2,1) >= 1
cut_clique_4(01,1):  0.30071 x(0,1) + 0.62616 x(1,1) >= 1
cut_clique_4(02,1):  0.50995 x(0,1) + 0.41153 x(2,1) >= 1
cut_clique_4(12,2):  0.05834 x(1,2) + 0.04513 x(2,2) >= 1
cut_clique_5(01,1):  0.41639 x(0,1) + 0.20787 x(1,1) >= 1
cut_clique_5(012,1):  0.21554 x(0,1) + 0.39157 x(1,1) + 0.33900 x(2,1) >= 1
cut_clique_5(12,1):  0.85260 x(1,1) + 0.73880 x(2,1) >= 1
cut_clique_5(02,1):  0.21554 x(0,1) + 0.33900 x(2,1) >= 1
cut_clique_5(01,2):  0.04363 x(0,2) + 0.05873 x(1,2) >= 1
cut_clique_6(01,1):  0.36346 x(0,1) + 0.36115 x(1,1) >= 1
cut_clique_6(12,1):  0.57730 x(1,1) + 0.42802 x(2,1) >= 1
cut_clique_6(012,1):  0.20468 x(0,1) + 0.35131 x(1,1) + 0.03895 x(2,1) >= 1
cut_clique_6(12,2):  0.04981 x(1,2) + 0.05351 x(2,2) >= 1
cut_clique_7(12,1):  0.36587 x(1,1) + 0.31489 x(2,1) >= 1
cut_clique_7(02,1):  0.29304 x(0,1) + 0.21888 x(2,1) >= 1
cut_clique_7(012,1):  0.24225 x(0,1) + 0.12018 x(1,1) + 0.18774 x(2,1) >= 1
cut_clique_7(01,1):  0.34063 x(0,1) + 0.17862 x(1,1) >= 1
cut_clique_8(01,1):  0.32080 x(0,1) + 0.20797 x(1,1) >= 1
cut_clique_8(012,1):  0.10215 x(0,1) + 0.40070 x(1,1) + 0.12556 x(2,1) >= 1
cut_clique_8(02,1):  0.22432 x(0,1) + 0.30615 x(2,1) >= 1
cut_clique_8(12,1):  0.16778 x(1,1) + 0.40574 x(2,1) >= 1
cut_clique_9(02,1):  0.16010 x(0,1) + 0.35775 x(2,1) >= 1
cut_clique_9(12,1):  0.30348 x(1,1) + 0.27880 x(2,1) >= 1
cut_clique_9(01,1):  0.33521 x(0,1) + 0.17645 x(1,1) >= 1
cut_clique_9(012,1):  0.30554 x(0,1) + 0.17131 x(1,1) + 0.04472 x(2,1) >= 1
cut_clique_9(01,2):  0.04142 x(0,2) + 0.06068 x(1,2) >= 1
cut_clique_9(12,2):  0.05962 x(1,2) + 0.04261 x(2,2) >= 1
cut_clique_10(01,1):  0.27388 x(0,1) + 0.17982 x(1,1) >= 1
cut_clique_10(02,1):  0.30116 x(0,1) + 0.17118 x(2,1) >= 1
cut_clique_10(012,1):  0.34316 x(0,1) + 0.01776 x(1,1) + 0.12442 x(2,1) >= 1
cut_clique_10(01,2):  0.05110 x(0,2) + 0.05062 x(1,2) >= 1
cut_clique_11(02,1):  0.22568 x(0,1) + 0.26894 x(2,1) >= 1
cut_clique_11(012,1):  0.14886 x(0,1) + 0.10325 x(1,1) + 0.15587 x(2,1) >= 1
cut_clique_11(12,1):  0.24336 x(1,1) + 0.25869 x(2,1) >= 1
cut_clique_11(01,1):  0.27903 x(0,1) + 0.16696 x(1,1) >= 1
cut_clique_11(02,2):  0.04818 x(0,2) + 0.05517 x(2,2) >= 1
cut_clique_12(02,1):  0.16015 x(0,1) + 0.24139 x(2,1) >= 1
cut_clique_12(012,1):  0.16656 x(0,1) + 0.04827 x(1,1) + 0.20639 x(2,1) >= 1
cut_clique_12(01,1):  0.28316 x(0,1) + 0.15977 x(1,1) >= 1
cut_clique_12(01,2):  0.04726 x(0,2) + 0.05012 x(1,2) >= 1
cut_clique_13(02,1):  0.18053 x(0,1) + 0.22008 x(2,1) >= 1
cut_clique_13(012,1):  0.23610 x(0,1) + 0.02285 x(1,1) + 0.14298 x(2,1) >= 1
cut_clique_14(02,1):  0.16842 x(0,1) + 0.21997 x(2,1) >= 1
cut_clique_14(01,1):  0.27023 x(0,1) + 0.15063 x(1,1) >= 1
cut_clique_15(12,1):  0.15022 x(1,1) + 0.25999 x(2,1) >= 1
cut_clique_15(02,1):  0.16856 x(0,1) + 0.18373 x(2,1) >= 1
cut_clique_15(012,1):  0.16554 x(0,1) + 0.01223 x(1,1) + 0.16727 x(2,1) >= 1
cut_clique_15(01,1):  0.27232 x(0,1) + 0.14464 x(1,1) >= 1
cut_clique_15(012,2):  0.03012 x(0,2) + 0.03962 x(1,2) + 0.02886 x(2,2) >= 1
cut_clique_16(012,1):  0.05659 x(0,1) + 0.05663 x(1,1) + 0.18461 x(2,1) >= 1
cut_clique_16(02,1):  0.16303 x(0,1) + 0.18453 x(2,1) >= 1
cut_clique_17(02,1):  0.14933 x(0,1) + 0.16279 x(2,1) >= 1
cut_clique_18(02,1):  0.15581 x(0,1) + 0.15356 x(2,1) >= 1
cut_clique_19(02,1):  0.14534 x(0,1) + 0.16212 x(2,1) >= 1
cut_clique_20(012,1):  0.05618 x(0,1) + 0.10521 x(1,1) + 0.11009 x(2,1) >= 1
cut_clique_21(02,1):  0.14482 x(0,1) + 0.15627 x(2,1) >= 1
cut_clique_22(012,1):  0.10968 x(0,1) + 0.10150 x(1,1) + 0.05922 x(2,1) >= 1
cut_clique_23(02,1):  0.14709 x(0,1) + 0.15309 x(2,1) >= 1
Bounds
 0 <= C <= 44
 14 <= x(0,0) <= 43
 0 <= y(0,1,0) <= 1
 0 <= y(1,0,0) <= 1
 0 <= v(0,1,0)p <= 36
 0 <= v(0,1,0)n <= 23
 0 <= v(1,0,0)p <= 19
 0 <= v(1,0,0)n <= 40
 0 <= u(0,1,0)p <= 440
 0 <= u(0,1,0)n <= 440
 0 <= u(1,0,0)p <= 440
 0 <= u(1,0,0)n <= 440
 0 <= y(0,2,0) <= 1
 0 <= y(2,0,0) <= 1
 0 <= v(0,2,0)p <= 28
 0 <= v(0,2,0)n <= 30
 0 <= v(2,0,0)p <= 27
 0 <= v(2,0,0)n <= 31
 0 <= u(0,2,0)p <= 440
 0 <= u(0,2,0)n <= 440
 0 <= u(2,0,0)p <= 440
 0 <= u(2,0,0)n <= 440
 4 <= x(1,0) <= 34
 0 <= y(1,2,0) <= 1
 0 <= y(2,1,0) <= 1
 0 <= v(1,2,0)p <= 19
 0 <= v(1,2,0)n <= 40
 0 <= v(2,1,0)p <= 35
 0 <= v(2,1,0)n <= 24
 0 <= u(1,2,0)p <= 440
 0 <= u(1,2,0)n <= 440
 0 <= u(2,1,0)p <= 440
 0 <= u(2,1,0)n <= 440
 13 <= x(2,0) <= 42
 0 <= x(0,1) <= 29
 0 <= y(0,1,1) <= 1
 0 <= y(1,0,1) <= 1
 0 <= v(0,1,1)p <= 25
 0 <= v(0,1,1)n <= 34
 0 <= v(1,0,1)p <= 23
 0 <= v(1,0,1)n <= 36
 0 <= u(0,1,1)p <= 440
 0 <= u(0,1,1)n <= 440
 0 <= u(1,0,1)p <= 440
 0 <= u(1,0,1)n <= 440
 0 <= y(0,2,1) <= 1
 0 <= y(2,0,1) <= 1
 0 <= v(0,2,1)p <= 22
 0 <= v(0,2,1)n <= 36
 0 <= v(2,0,1)p <= 22
 0 <= v(2,0,1)n <= 36
 0 <= u(0,2,1)p <= 440
 0 <= u(0,2,1)n <= 440
 0 <= u(2,0,1)p <= 440
 0 <= u(2,0,1)n <= 440
 0 <= x(1,1) <= 30
 0 <= y(1,2,1) <= 1
 0 <= y(2,1,1) <= 1
 0 <= v(1,2,1)p <= 23
 0 <= v(1,2,1)n <= 36
 0 <= v(2,1,1)p <= 25
 0 <= v(2,1,1)n <= 34
 0 <= u(1,2,1)p <= 440
 0 <= u(1,2,1)n <= 440
 0 <= u(2,1,1)p <= 440
 0 <= u(2,1,1)n <= 440
 0 <= x(2,1) <= 29
 7 <= x(0,2) <= 36
 0 <= y(0,1,2) <= 1
 0 <= y(1,0,2) <= 1
 0 <= v(0,1,2)p <= 22
 0 <= v(0,1,2)n <= 37
 0 <= v(1,0,2)p <= 23
 0 <= v(1,0,2)n <= 36
 0 <= u(0,1,2)p <= 440
 0 <= u(0,1,2)n <= 440
 0 <= u(1,0,2)p <= 440
 0 <= u(1,0,2)n <= 440
 0 <= y(0,2,2) <= 1
 0 <= y(2,0,2) <= 1
 0 <= v(0,2,2)p <= 23
 0 <= v(0,2,2)n <= 35
 0 <= v(2,0,2)p <= 22
 0 <= v(2,0,2)n <= 36
 0 <= u(0,2,2)p <= 440
 0 <= u(0,2,2)n <= 440
 0 <= u(2,0,2)p <= 440
 0 <= u(2,0,2)n <= 440
 7 <= x(1,2) <= 37
 0 <= y(1,2,2) <= 1
 0 <= y(2,1,2) <= 1
 0 <= v(1,2,2)p <= 24
 0 <= v(1,2,2)n <= 35
 0 <= v(2,1,2)p <= 22
 0 <= v(2,1,2)n <= 37
 0 <= u(1,2,2)p <= 440
 0 <= u(1,2,2)n <= 440
 0 <= u(2,1,2)p <= 440
 0 <= u(2,1,2)n <= 440
 7 <= x(2,2) <= 36
End
